c File: data_files/evolved_graphs/g3582.col
c
c Auto generated graph
c
p edge 100 2051
e 1 3
e 1 5
e 1 7
e 1 9
e 1 10
e 1 18
e 1 19
e 1 24
e 1 25
e 1 26
e 1 27
e 1 29
e 1 30
e 1 34
e 1 37
e 1 41
e 1 42
e 1 44
e 1 47
e 1 50
e 1 51
e 1 52
e 1 54
e 1 59
e 1 60
e 1 61
e 1 64
e 1 65
e 1 67
e 1 73
e 1 74
e 1 75
e 1 76
e 1 77
e 1 79
e 1 80
e 1 84
e 1 85
e 1 86
e 1 87
e 1 89
e 1 90
e 1 91
e 1 93
e 1 94
e 1 96
e 1 99
e 2 7
e 2 10
e 2 12
e 2 14
e 2 17
e 2 18
e 2 19
e 2 21
e 2 23
e 2 25
e 2 26
e 2 27
e 2 28
e 2 30
e 2 34
e 2 37
e 2 40
e 2 44
e 2 48
e 2 52
e 2 55
e 2 56
e 2 58
e 2 59
e 2 62
e 2 63
e 2 65
e 2 69
e 2 72
e 2 74
e 2 78
e 2 79
e 2 87
e 2 88
e 2 93
e 2 94
e 2 96
e 2 98
e 2 99
e 3 4
e 3 9
e 3 11
e 3 12
e 3 16
e 3 20
e 3 24
e 3 25
e 3 26
e 3 28
e 3 38
e 3 41
e 3 44
e 3 48
e 3 53
e 3 54
e 3 55
e 3 57
e 3 59
e 3 60
e 3 63
e 3 67
e 3 68
e 3 69
e 3 70
e 3 73
e 3 75
e 3 76
e 3 78
e 3 79
e 3 80
e 3 81
e 3 82
e 3 83
e 3 85
e 3 87
e 3 91
e 3 92
e 3 93
e 3 95
e 3 96
e 3 98
e 3 99
e 4 7
e 4 8
e 4 10
e 4 11
e 4 12
e 4 13
e 4 14
e 4 16
e 4 23
e 4 29
e 4 32
e 4 35
e 4 36
e 4 37
e 4 43
e 4 44
e 4 46
e 4 54
e 4 55
e 4 57
e 4 59
e 4 60
e 4 61
e 4 63
e 4 66
e 4 70
e 4 71
e 4 73
e 4 76
e 4 77
e 4 81
e 4 82
e 4 85
e 4 89
e 4 90
e 4 92
e 4 93
e 4 94
e 4 97
e 4 98
e 4 99
e 5 10
e 5 12
e 5 13
e 5 16
e 5 17
e 5 19
e 5 20
e 5 21
e 5 22
e 5 32
e 5 35
e 5 39
e 5 44
e 5 51
e 5 52
e 5 54
e 5 56
e 5 57
e 5 65
e 5 67
e 5 68
e 5 69
e 5 70
e 5 72
e 5 73
e 5 74
e 5 77
e 5 78
e 5 80
e 5 81
e 5 83
e 5 84
e 5 85
e 5 87
e 5 89
e 5 91
e 5 92
e 5 93
e 5 96
e 5 98
e 5 100
e 6 7
e 6 13
e 6 17
e 6 23
e 6 24
e 6 26
e 6 28
e 6 29
e 6 34
e 6 35
e 6 36
e 6 37
e 6 39
e 6 40
e 6 44
e 6 48
e 6 49
e 6 50
e 6 52
e 6 53
e 6 54
e 6 59
e 6 65
e 6 66
e 6 69
e 6 70
e 6 72
e 6 75
e 6 77
e 6 78
e 6 79
e 6 80
e 6 82
e 6 83
e 6 85
e 6 88
e 6 93
e 6 95
e 6 96
e 6 97
e 6 99
e 7 12
e 7 14
e 7 16
e 7 18
e 7 20
e 7 21
e 7 22
e 7 26
e 7 34
e 7 36
e 7 37
e 7 40
e 7 44
e 7 47
e 7 49
e 7 50
e 7 53
e 7 54
e 7 55
e 7 56
e 7 60
e 7 61
e 7 62
e 7 63
e 7 64
e 7 67
e 7 68
e 7 70
e 7 72
e 7 73
e 7 76
e 7 78
e 7 81
e 7 88
e 7 92
e 7 93
e 7 94
e 7 95
e 7 96
e 7 97
e 7 99
e 7 100
e 8 10
e 8 18
e 8 19
e 8 21
e 8 22
e 8 23
e 8 25
e 8 26
e 8 27
e 8 29
e 8 35
e 8 36
e 8 37
e 8 38
e 8 41
e 8 45
e 8 46
e 8 47
e 8 49
e 8 51
e 8 52
e 8 53
e 8 56
e 8 59
e 8 61
e 8 62
e 8 65
e 8 66
e 8 69
e 8 70
e 8 73
e 8 74
e 8 76
e 8 79
e 8 81
e 8 83
e 8 86
e 8 88
e 8 89
e 8 92
e 8 95
e 8 96
e 8 97
e 8 100
e 9 11
e 9 15
e 9 18
e 9 20
e 9 21
e 9 25
e 9 26
e 9 27
e 9 35
e 9 38
e 9 40
e 9 42
e 9 44
e 9 45
e 9 47
e 9 49
e 9 50
e 9 51
e 9 52
e 9 53
e 9 54
e 9 57
e 9 60
e 9 61
e 9 62
e 9 63
e 9 66
e 9 67
e 9 68
e 9 70
e 9 71
e 9 72
e 9 75
e 9 76
e 9 79
e 9 81
e 9 82
e 9 84
e 9 88
e 9 89
e 9 90
e 9 92
e 9 95
e 9 97
e 9 98
e 9 99
e 9 100
e 10 15
e 10 17
e 10 19
e 10 20
e 10 21
e 10 23
e 10 24
e 10 25
e 10 32
e 10 34
e 10 35
e 10 36
e 10 37
e 10 40
e 10 41
e 10 44
e 10 45
e 10 47
e 10 49
e 10 50
e 10 53
e 10 54
e 10 55
e 10 57
e 10 59
e 10 61
e 10 62
e 10 66
e 10 68
e 10 70
e 10 72
e 10 75
e 10 76
e 10 77
e 10 78
e 10 82
e 10 83
e 10 85
e 10 86
e 10 87
e 10 88
e 10 89
e 10 90
e 10 93
e 10 94
e 10 96
e 10 98
e 10 99
e 10 100
e 11 12
e 11 21
e 11 24
e 11 25
e 11 28
e 11 29
e 11 39
e 11 44
e 11 46
e 11 50
e 11 51
e 11 56
e 11 57
e 11 58
e 11 65
e 11 66
e 11 68
e 11 69
e 11 71
e 11 72
e 11 73
e 11 74
e 11 76
e 11 80
e 11 82
e 11 84
e 11 88
e 11 89
e 11 93
e 11 94
e 11 96
e 11 97
e 11 99
e 11 100
e 12 13
e 12 14
e 12 17
e 12 20
e 12 21
e 12 24
e 12 26
e 12 28
e 12 29
e 12 33
e 12 34
e 12 37
e 12 39
e 12 46
e 12 53
e 12 54
e 12 57
e 12 60
e 12 61
e 12 65
e 12 68
e 12 69
e 12 74
e 12 77
e 12 82
e 12 84
e 12 85
e 12 90
e 12 91
e 12 94
e 12 95
e 12 98
e 12 99
e 12 100
e 13 17
e 13 23
e 13 27
e 13 29
e 13 34
e 13 39
e 13 46
e 13 51
e 13 52
e 13 53
e 13 55
e 13 58
e 13 62
e 13 64
e 13 65
e 13 66
e 13 67
e 13 68
e 13 73
e 13 76
e 13 78
e 13 79
e 13 80
e 13 84
e 13 85
e 13 88
e 13 94
e 13 95
e 13 96
e 13 97
e 13 98
e 13 99
e 13 100
e 14 20
e 14 24
e 14 28
e 14 35
e 14 38
e 14 39
e 14 41
e 14 42
e 14 47
e 14 49
e 14 52
e 14 53
e 14 56
e 14 57
e 14 60
e 14 62
e 14 63
e 14 64
e 14 65
e 14 67
e 14 70
e 14 73
e 14 75
e 14 80
e 14 83
e 14 84
e 14 86
e 14 87
e 14 88
e 14 89
e 14 91
e 14 92
e 14 93
e 14 96
e 14 97
e 14 98
e 14 99
e 15 16
e 15 21
e 15 22
e 15 25
e 15 30
e 15 32
e 15 33
e 15 34
e 15 35
e 15 36
e 15 38
e 15 40
e 15 42
e 15 43
e 15 44
e 15 45
e 15 48
e 15 50
e 15 51
e 15 53
e 15 55
e 15 58
e 15 59
e 15 60
e 15 61
e 15 63
e 15 66
e 15 69
e 15 70
e 15 74
e 15 77
e 15 80
e 15 81
e 15 83
e 15 84
e 15 86
e 15 87
e 15 91
e 15 93
e 15 95
e 15 96
e 15 98
e 15 99
e 15 100
e 16 21
e 16 23
e 16 34
e 16 35
e 16 37
e 16 38
e 16 39
e 16 42
e 16 45
e 16 51
e 16 53
e 16 54
e 16 55
e 16 56
e 16 60
e 16 61
e 16 62
e 16 63
e 16 68
e 16 70
e 16 71
e 16 72
e 16 75
e 16 81
e 16 84
e 16 85
e 16 88
e 16 89
e 16 91
e 16 92
e 16 94
e 16 96
e 16 99
e 16 100
e 17 18
e 17 19
e 17 28
e 17 34
e 17 36
e 17 37
e 17 39
e 17 40
e 17 42
e 17 44
e 17 50
e 17 56
e 17 59
e 17 60
e 17 61
e 17 63
e 17 64
e 17 65
e 17 66
e 17 67
e 17 68
e 17 69
e 17 70
e 17 74
e 17 76
e 17 77
e 17 79
e 17 80
e 17 81
e 17 82
e 17 83
e 17 84
e 17 85
e 17 89
e 17 90
e 17 91
e 17 92
e 17 93
e 17 96
e 18 19
e 18 22
e 18 23
e 18 35
e 18 36
e 18 38
e 18 40
e 18 43
e 18 45
e 18 48
e 18 50
e 18 51
e 18 59
e 18 62
e 18 64
e 18 65
e 18 67
e 18 68
e 18 69
e 18 70
e 18 71
e 18 75
e 18 76
e 18 77
e 18 81
e 18 82
e 18 84
e 18 85
e 18 87
e 18 91
e 18 97
e 18 98
e 19 20
e 19 23
e 19 24
e 19 26
e 19 32
e 19 34
e 19 40
e 19 43
e 19 46
e 19 48
e 19 49
e 19 51
e 19 52
e 19 53
e 19 54
e 19 58
e 19 59
e 19 60
e 19 67
e 19 72
e 19 74
e 19 75
e 19 76
e 19 77
e 19 78
e 19 86
e 19 92
e 19 93
e 19 94
e 19 95
e 19 96
e 19 97
e 19 98
e 19 99
e 19 100
e 20 25
e 20 28
e 20 29
e 20 35
e 20 41
e 20 45
e 20 47
e 20 48
e 20 53
e 20 54
e 20 56
e 20 57
e 20 58
e 20 60
e 20 61
e 20 63
e 20 69
e 20 72
e 20 73
e 20 75
e 20 77
e 20 81
e 20 82
e 20 83
e 20 85
e 20 86
e 20 88
e 20 91
e 20 92
e 20 94
e 20 95
e 20 96
e 20 97
e 20 99
e 20 100
e 21 27
e 21 32
e 21 33
e 21 38
e 21 39
e 21 40
e 21 41
e 21 42
e 21 46
e 21 48
e 21 50
e 21 51
e 21 53
e 21 63
e 21 64
e 21 65
e 21 69
e 21 72
e 21 75
e 21 79
e 21 80
e 21 81
e 21 82
e 21 83
e 21 88
e 21 89
e 21 90
e 21 91
e 21 93
e 21 94
e 21 96
e 21 97
e 21 98
e 21 99
e 21 100
e 22 23
e 22 27
e 22 28
e 22 36
e 22 37
e 22 39
e 22 46
e 22 47
e 22 48
e 22 50
e 22 53
e 22 57
e 22 58
e 22 60
e 22 65
e 22 66
e 22 69
e 22 70
e 22 76
e 22 79
e 22 80
e 22 81
e 22 82
e 22 84
e 22 87
e 22 92
e 22 95
e 22 96
e 22 100
e 23 26
e 23 33
e 23 35
e 23 36
e 23 38
e 23 42
e 23 45
e 23 46
e 23 50
e 23 56
e 23 57
e 23 58
e 23 60
e 23 61
e 23 68
e 23 70
e 23 71
e 23 75
e 23 78
e 23 79
e 23 82
e 23 83
e 23 84
e 23 87
e 23 91
e 23 94
e 23 95
e 23 98
e 23 100
e 24 36
e 24 38
e 24 40
e 24 41
e 24 43
e 24 44
e 24 48
e 24 49
e 24 51
e 24 54
e 24 55
e 24 56
e 24 58
e 24 63
e 24 65
e 24 66
e 24 68
e 24 70
e 24 71
e 24 73
e 24 74
e 24 75
e 24 76
e 24 77
e 24 81
e 24 82
e 24 83
e 24 87
e 24 88
e 24 89
e 24 92
e 24 95
e 24 98
e 24 99
e 25 26
e 25 35
e 25 36
e 25 39
e 25 45
e 25 46
e 25 50
e 25 53
e 25 56
e 25 57
e 25 58
e 25 61
e 25 63
e 25 67
e 25 69
e 25 70
e 25 73
e 25 77
e 25 78
e 25 81
e 25 82
e 25 85
e 25 87
e 25 88
e 25 91
e 25 97
e 25 98
e 25 99
e 25 100
e 26 29
e 26 30
e 26 34
e 26 35
e 26 38
e 26 42
e 26 43
e 26 47
e 26 48
e 26 49
e 26 50
e 26 51
e 26 52
e 26 55
e 26 56
e 26 57
e 26 58
e 26 65
e 26 67
e 26 69
e 26 71
e 26 73
e 26 75
e 26 76
e 26 77
e 26 79
e 26 81
e 26 82
e 26 83
e 26 85
e 26 86
e 26 87
e 26 90
e 26 91
e 26 92
e 26 93
e 26 98
e 26 99
e 26 100
e 27 37
e 27 38
e 27 42
e 27 44
e 27 45
e 27 54
e 27 56
e 27 57
e 27 59
e 27 60
e 27 66
e 27 67
e 27 68
e 27 72
e 27 73
e 27 77
e 27 79
e 27 86
e 27 87
e 27 89
e 27 90
e 27 91
e 27 94
e 27 96
e 27 97
e 27 99
e 28 36
e 28 45
e 28 46
e 28 47
e 28 49
e 28 52
e 28 54
e 28 55
e 28 57
e 28 58
e 28 59
e 28 65
e 28 66
e 28 67
e 28 68
e 28 71
e 28 72
e 28 73
e 28 75
e 28 77
e 28 78
e 28 81
e 28 82
e 28 85
e 28 86
e 28 89
e 28 91
e 28 92
e 28 95
e 28 96
e 28 98
e 29 34
e 29 39
e 29 41
e 29 42
e 29 43
e 29 47
e 29 54
e 29 55
e 29 56
e 29 60
e 29 62
e 29 64
e 29 68
e 29 69
e 29 71
e 29 72
e 29 74
e 29 75
e 29 81
e 29 82
e 29 83
e 29 85
e 29 88
e 29 89
e 29 91
e 29 93
e 29 95
e 29 97
e 29 98
e 29 100
e 30 33
e 30 35
e 30 37
e 30 46
e 30 52
e 30 54
e 30 59
e 30 64
e 31 33
e 31 37
e 31 79
e 32 34
e 32 35
e 32 36
e 32 38
e 32 43
e 32 68
e 32 81
e 32 82
e 32 87
e 32 96
e 33 34
e 33 35
e 33 46
e 33 51
e 33 62
e 33 66
e 33 82
e 33 83
e 33 96
e 34 35
e 34 36
e 34 37
e 34 38
e 34 39
e 34 48
e 34 49
e 34 51
e 34 58
e 34 81
e 35 36
e 35 41
e 35 42
e 35 46
e 35 48
e 35 53
e 35 56
e 35 57
e 35 59
e 35 61
e 35 68
e 35 72
e 35 74
e 35 75
e 35 78
e 35 79
e 35 80
e 35 82
e 35 87
e 35 89
e 35 91
e 35 92
e 35 93
e 36 37
e 36 38
e 36 44
e 36 47
e 36 52
e 36 55
e 36 57
e 36 61
e 36 63
e 36 70
e 36 73
e 36 74
e 36 76
e 36 78
e 36 80
e 36 82
e 36 84
e 36 88
e 36 89
e 36 90
e 36 91
e 36 94
e 36 95
e 36 96
e 36 97
e 36 100
e 37 40
e 37 41
e 37 42
e 37 48
e 37 51
e 37 53
e 37 54
e 37 56
e 37 58
e 37 63
e 37 66
e 37 70
e 37 84
e 37 89
e 37 90
e 37 92
e 37 96
e 37 97
e 37 99
e 37 100
e 38 41
e 38 48
e 38 50
e 38 59
e 38 60
e 38 61
e 38 62
e 38 66
e 38 69
e 38 71
e 38 73
e 38 76
e 38 77
e 38 79
e 38 80
e 38 83
e 38 84
e 38 86
e 38 88
e 38 90
e 38 91
e 38 93
e 38 96
e 38 97
e 38 98
e 38 99
e 39 41
e 39 42
e 39 43
e 39 45
e 39 47
e 39 49
e 39 50
e 39 51
e 39 53
e 39 55
e 39 57
e 39 62
e 39 64
e 39 65
e 39 66
e 39 67
e 39 68
e 39 70
e 39 71
e 39 72
e 39 74
e 39 75
e 39 77
e 39 78
e 39 82
e 39 85
e 39 86
e 39 87
e 39 88
e 39 90
e 39 93
e 39 94
e 39 95
e 39 96
e 39 98
e 39 99
e 40 43
e 40 46
e 40 48
e 40 54
e 40 56
e 40 59
e 40 61
e 40 62
e 40 63
e 40 65
e 40 66
e 40 67
e 40 68
e 40 76
e 40 81
e 40 82
e 40 83
e 40 84
e 40 85
e 40 86
e 40 87
e 40 88
e 40 92
e 40 94
e 40 95
e 40 97
e 40 98
e 40 100
e 41 52
e 41 62
e 41 63
e 41 64
e 41 66
e 41 73
e 41 74
e 41 75
e 41 78
e 41 81
e 41 82
e 41 83
e 41 84
e 41 85
e 41 86
e 41 87
e 41 92
e 41 94
e 41 95
e 41 98
e 41 99
e 41 100
e 42 43
e 42 45
e 42 48
e 42 51
e 42 56
e 42 59
e 42 62
e 42 63
e 42 69
e 42 70
e 42 73
e 42 74
e 42 78
e 42 79
e 42 80
e 42 82
e 42 83
e 42 84
e 42 86
e 42 88
e 42 89
e 42 90
e 42 92
e 42 93
e 42 94
e 42 95
e 42 98
e 42 99
e 43 46
e 43 49
e 43 50
e 43 52
e 43 53
e 43 56
e 43 60
e 43 62
e 43 63
e 43 64
e 43 65
e 43 66
e 43 67
e 43 68
e 43 70
e 43 72
e 43 73
e 43 76
e 43 77
e 43 82
e 43 83
e 43 84
e 43 85
e 43 90
e 43 91
e 43 94
e 43 96
e 43 97
e 43 98
e 44 48
e 44 58
e 44 60
e 44 61
e 44 62
e 44 64
e 44 65
e 44 66
e 44 70
e 44 72
e 44 73
e 44 75
e 44 77
e 44 78
e 44 80
e 44 81
e 44 82
e 44 84
e 44 85
e 44 86
e 44 90
e 44 91
e 44 93
e 44 94
e 44 95
e 44 97
e 44 98
e 44 100
e 45 47
e 45 54
e 45 56
e 45 57
e 45 58
e 45 59
e 45 61
e 45 65
e 45 66
e 45 68
e 45 69
e 45 70
e 45 71
e 45 72
e 45 73
e 45 74
e 45 75
e 45 76
e 45 78
e 45 80
e 45 81
e 45 83
e 45 85
e 45 86
e 45 87
e 45 89
e 45 91
e 45 92
e 45 94
e 45 95
e 45 97
e 45 98
e 46 48
e 46 55
e 46 57
e 46 58
e 46 64
e 46 65
e 46 66
e 46 67
e 46 70
e 46 72
e 46 74
e 46 75
e 46 76
e 46 77
e 46 78
e 46 79
e 46 80
e 46 81
e 46 82
e 46 84
e 46 86
e 46 88
e 46 89
e 46 93
e 46 98
e 46 99
e 47 50
e 47 52
e 47 54
e 47 55
e 47 57
e 47 59
e 47 62
e 47 66
e 47 67
e 47 68
e 47 69
e 47 70
e 47 72
e 47 73
e 47 74
e 47 75
e 47 76
e 47 77
e 47 82
e 47 83
e 47 85
e 47 87
e 47 88
e 47 89
e 47 92
e 47 93
e 47 94
e 47 96
e 47 98
e 47 99
e 47 100
e 48 55
e 48 57
e 48 58
e 48 61
e 48 65
e 48 66
e 48 70
e 48 71
e 48 72
e 48 76
e 48 77
e 48 79
e 48 80
e 48 85
e 48 86
e 48 89
e 48 92
e 48 96
e 48 99
e 48 100
e 49 51
e 49 54
e 49 57
e 49 65
e 49 69
e 49 70
e 49 72
e 49 75
e 49 76
e 49 77
e 49 79
e 49 80
e 49 81
e 49 83
e 49 84
e 49 86
e 49 87
e 49 89
e 49 90
e 49 91
e 49 92
e 49 93
e 49 96
e 49 98
e 50 52
e 50 56
e 50 59
e 50 60
e 50 61
e 50 70
e 50 72
e 50 74
e 50 75
e 50 79
e 50 80
e 50 81
e 50 83
e 50 85
e 50 86
e 50 87
e 50 88
e 50 89
e 50 90
e 50 91
e 50 92
e 50 93
e 50 94
e 50 97
e 50 99
e 50 100
e 51 54
e 51 55
e 51 58
e 51 59
e 51 64
e 51 67
e 51 70
e 51 71
e 51 74
e 51 75
e 51 82
e 51 84
e 51 85
e 51 87
e 51 88
e 51 90
e 51 92
e 51 95
e 51 96
e 51 98
e 51 99
e 51 100
e 52 53
e 52 62
e 52 64
e 52 65
e 52 70
e 52 71
e 52 73
e 52 76
e 52 78
e 52 79
e 52 82
e 52 83
e 52 85
e 52 87
e 52 88
e 52 89
e 52 90
e 52 92
e 52 94
e 52 95
e 52 96
e 52 97
e 52 98
e 52 99
e 52 100
e 53 54
e 53 56
e 53 66
e 53 67
e 53 70
e 53 73
e 53 77
e 53 78
e 53 79
e 53 80
e 53 85
e 53 86
e 53 87
e 53 88
e 53 91
e 53 92
e 53 93
e 53 94
e 53 95
e 53 97
e 53 98
e 53 100
e 54 56
e 54 57
e 54 59
e 54 61
e 54 64
e 54 71
e 54 72
e 54 73
e 54 75
e 54 76
e 54 79
e 54 81
e 54 82
e 54 83
e 54 84
e 54 87
e 54 95
e 54 96
e 54 97
e 54 98
e 54 99
e 54 100
e 55 58
e 55 61
e 55 67
e 55 69
e 55 70
e 55 72
e 55 74
e 55 75
e 55 76
e 55 77
e 55 78
e 55 82
e 55 83
e 55 86
e 55 87
e 55 89
e 55 90
e 55 91
e 55 92
e 55 93
e 55 98
e 56 57
e 56 61
e 56 66
e 56 68
e 56 70
e 56 71
e 56 72
e 56 73
e 56 79
e 56 80
e 56 81
e 56 82
e 56 83
e 56 84
e 56 85
e 56 87
e 56 88
e 56 90
e 56 97
e 56 98
e 56 99
e 57 64
e 57 66
e 57 69
e 57 70
e 57 73
e 57 74
e 57 77
e 57 78
e 57 79
e 57 82
e 57 84
e 57 85
e 57 88
e 57 90
e 57 91
e 57 94
e 57 97
e 57 99
e 57 100
e 58 63
e 58 64
e 58 65
e 58 70
e 58 71
e 58 73
e 58 75
e 58 76
e 58 77
e 58 79
e 58 80
e 58 81
e 58 84
e 58 85
e 58 87
e 58 88
e 58 90
e 58 91
e 58 92
e 58 93
e 58 94
e 58 96
e 58 98
e 58 99
e 59 72
e 59 73
e 59 74
e 59 76
e 59 79
e 59 82
e 59 83
e 59 84
e 59 85
e 59 87
e 59 88
e 59 89
e 59 90
e 59 92
e 59 94
e 59 95
e 59 96
e 59 97
e 59 98
e 60 63
e 60 71
e 60 72
e 60 73
e 60 74
e 60 75
e 60 76
e 60 77
e 60 78
e 60 79
e 60 80
e 60 84
e 60 88
e 60 93
e 60 95
e 60 98
e 61 68
e 61 70
e 61 71
e 61 72
e 61 73
e 61 75
e 61 76
e 61 79
e 61 80
e 61 82
e 61 84
e 61 85
e 61 86
e 61 92
e 61 94
e 61 95
e 61 96
e 61 97
e 61 98
e 62 65
e 62 66
e 62 72
e 62 73
e 62 74
e 62 75
e 62 77
e 62 78
e 62 79
e 62 80
e 62 81
e 62 84
e 62 85
e 62 87
e 62 89
e 62 90
e 62 91
e 62 92
e 62 95
e 62 96
e 62 99
e 62 100
e 63 65
e 63 67
e 63 69
e 63 70
e 63 72
e 63 73
e 63 77
e 63 78
e 63 80
e 63 81
e 63 83
e 63 84
e 63 88
e 63 91
e 63 94
e 63 95
e 63 99
e 64 70
e 64 71
e 64 74
e 64 75
e 64 77
e 64 78
e 64 79
e 64 80
e 64 81
e 64 82
e 64 83
e 64 84
e 64 85
e 64 86
e 64 87
e 64 88
e 64 90
e 64 92
e 64 93
e 64 94
e 64 98
e 65 66
e 65 69
e 65 70
e 65 71
e 65 72
e 65 74
e 65 76
e 65 79
e 65 82
e 65 83
e 65 86
e 65 87
e 65 88
e 65 89
e 65 91
e 65 93
e 65 95
e 65 96
e 65 98
e 65 99
e 66 70
e 66 72
e 66 73
e 66 74
e 66 75
e 66 76
e 66 77
e 66 82
e 66 83
e 66 84
e 66 86
e 66 88
e 66 91
e 66 93
e 66 96
e 66 97
e 67 72
e 67 74
e 67 77
e 67 80
e 67 83
e 67 85
e 67 86
e 67 87
e 67 88
e 67 89
e 67 90
e 67 91
e 67 92
e 67 97
e 68 69
e 68 70
e 68 75
e 68 76
e 68 78
e 68 79
e 68 81
e 68 82
e 68 86
e 68 88
e 68 89
e 68 92
e 68 93
e 68 94
e 68 95
e 68 97
e 69 70
e 69 72
e 69 73
e 69 77
e 69 79
e 69 80
e 69 83
e 69 87
e 69 89
e 69 91
e 69 92
e 69 93
e 69 96
e 69 97
e 69 100
e 70 75
e 70 76
e 70 79
e 70 84
e 70 86
e 70 89
e 70 95
e 71 74
e 71 78
e 71 79
e 71 82
e 71 83
e 71 84
e 71 85
e 71 87
e 71 89
e 71 100
e 72 75
e 72 78
e 72 83
e 72 84
e 72 87
e 72 91
e 72 92
e 72 97
e 73 77
e 73 78
e 73 82
e 73 84
e 73 90
e 73 94
e 73 96
e 73 98
e 74 76
e 74 77
e 74 78
e 74 79
e 74 81
e 74 85
e 74 91
e 74 98
e 74 99
e 75 82
e 75 84
e 75 91
e 75 98
e 75 100
e 76 78
e 76 80
e 76 85
e 76 90
e 76 95
e 76 98
e 77 78
e 77 79
e 77 80
e 77 85
e 77 86
e 77 89
e 77 92
e 77 93
e 77 99
e 77 100
e 78 84
e 78 86
e 78 93
e 78 95
e 78 98
e 78 99
e 78 100
e 79 81
e 79 83
e 79 88
e 79 92
e 79 94
e 79 96
e 79 97
e 79 100
e 80 83
e 80 85
e 80 88
e 80 89
e 80 90
e 80 91
e 80 93
e 80 98
e 80 99
e 80 100
e 81 85
e 81 94
e 81 97
e 81 98
e 81 100
e 82 90
e 82 98
e 82 99
e 82 100
e 83 85
e 83 86
e 83 87
e 83 97
e 84 86
e 84 87
e 84 91
e 84 94
e 84 100
e 85 90
e 85 91
e 85 98
e 85 99
e 85 100
e 86 90
e 86 91
e 86 93
e 86 97
e 86 100
e 87 88
e 87 92
e 87 93
e 87 94
e 87 95
e 87 100
e 88 93
e 88 95
e 89 94
e 89 98
e 89 100
e 90 92
e 90 95
e 90 99
e 91 92
e 91 99
e 93 94
e 93 96
e 93 99
e 93 100
e 94 95
e 94 98
e 95 100
e 96 98
e 96 100
e 98 100
